74568.0
130, 210, 332, 517, 702, 732, 837, 1030, 1035, 1071, 1109, 1135, 1183, 1246, 1536, 1584, 1800, 1805, 1808, 1890, 1947, 1991, 2100, 2171, 2189, 2275, 2373, 2392, 2408, 2673, 2839, 2920, 2922, 2955, 2975, 2987, 3023, 3055, 3175, 3271, 3294, 3402, 3405, 3484, 3501, 3685, 3736, 3785, 3837, 3952, 3955, 3966, 3969, 3981, 4026, 4191, 4513, 4627, 4671, 4735, 4762, 4860, 5038, 5127, 5257, 5274, 5286, 5413, 5484, 5498, 5501, 5675, 5882, 5998, 6003, 6089, 6116, 6148, 6321, 6468, 6499, 6648, 6651, 6756, 6810, 6855, 7068, 7072, 7155, 7237, 7319, 7396, 7425, 7461, 7468, 7540, 7542, 7630, 7671, 7704, 7743, 7749, 7842, 8077, 8106, 8156, 8251, 8557, 8689, 8837, 9190, 9196, 9232, 9263, 9344, 9401, 9406, 9465, 9478, 9559, 9569, 9621, 9718, 9991